
Gurobi 12.0.2 (win64) logging started Tue Jun 10 15:51:23 2025

Set parameter LogFile to value "C:\Ioana\_uni\honours\slp\algorithm\Main_files\results\removing_sulfation_w_cys_to_mer\Task_004_Sample002_irr_gurobi.log"
Gurobi Optimizer version 12.0.2 build v12.0.2rc0 (win64 - Windows 11.0 (26100.2))

CPU model: Intel(R) Core(TM) Ultra 5 125H, instruction set [SSE2|AVX|AVX2]
Thread count: 14 physical cores, 18 logical processors, using up to 18 threads

Non-default parameters:
TimeLimit  2200

Optimize a model with 47234 rows, 34515 columns and 146719 nonzeros
Model fingerprint: 0x91c7c269
Variable types: 17267 continuous, 17248 integer (17248 binary)
Coefficient statistics:
  Matrix range     [1e-04, 8e+04]
  Objective range  [4e-04, 9e-01]
  Bounds range     [1e+00, 1e+03]
  RHS range        [1e+00, 1e+00]
Presolve removed 30815 rows and 21539 columns
Presolve time: 0.32s
Presolved: 16419 rows, 12976 columns, 54729 nonzeros
Variable types: 6424 continuous, 6552 integer (6552 binary)

Root relaxation: objective 1.796855e+00, 2886 iterations, 0.26 seconds (0.60 work units)

    Nodes    |    Current Node    |     Objective Bounds      |     Work
 Expl Unexpl |  Obj  Depth IntInf | Incumbent    BestBd   Gap | It/Node Time

     0     0    1.79685    0    2          -    1.79685      -     -    0s
H    0     0                       2.7067210    1.79685  33.6%     -    0s
H    0     0                       2.0031278    1.79685  10.3%     -    0s

Cutting planes:
  Learned: 1

Explored 1 nodes (2886 simplex iterations) in 0.80 seconds (1.16 work units)
Thread count was 18 (of 18 available processors)

Solution count 2: 2.00313 2.70672 

Optimal solution found (tolerance 1.00e-04)
Best objective 2.003127799240e+00, best bound 2.003127799240e+00, gap 0.0000%
